NAME: tsp30_13
COMMENT: 30-tsp problem (Padberg/Rinaldi)
TYPE: TSP
DIMENSION: 30
EDGE_WEIGHT_TYPE : EUC_2D
NODE_COORD_SECTION
1 22 19
2 1 38
3 26 19
4 38 34
5 10 1
6 10 17
7 20 15
8 34 28
9 38 5
10 36 8
11 20 35
12 5 1
13 6 5
14 16 11
15 31 21
16 10 25
17 15 31
18 30 33
19 3 2
20 7 40
21 21 38
22 12 10
23 21 11
24 14 27
25 0 23
26 17 4
27 13 39
28 15 18
29 15 4
30 27 17
